NAME: ./prFile/tspFile/tsp_file94.tsp
COMMENT: TSP file generated by Python
TYPE: TSP
DIMENSION: 40
EDGE_WEIGHT_TYPE: EUC_2D
NODE_COORD_SECTION
1 35 24
2 95 87
3 63 89
4 10 6
5 59 60
6 59 4
7 3 100
8 57 57
9 17 7
10 50 84
11 44 63
12 1 38
13 82 24
14 73 84
15 72 13
16 75 30
17 83 98
18 4 93
19 8 57
20 36 10
21 46 73
22 34 12
23 83 98
24 98 86
25 87 46
26 75 35
27 31 97
28 59 1
29 47 84
30 55 72
31 72 100
32 81 84
33 35 99
34 32 20
35 17 17
36 54 98
37 58 99
38 21 34
39 17 100
40 65 79
EOF
